NAME /Users/henri/Research/solvers/instances/idol-instances/robust/collection/spp_dkp_Lefebvre_et_al_2026/shortest_path_4_5/uncertainty_sets/discrete_knapsack
ROWS
 N  OBJ
 L  primal_lower
COLUMNS
    MARKER    'MARKER'                 'INTORG'
    y[0,1]     OBJ        0
    y[0,1]     primal_lower -1.12
    y[0,3]     OBJ        0
    y[0,3]     primal_lower -9.65
    y[1,0]     OBJ        0
    y[1,0]     primal_lower -7.21
    y[1,2]     OBJ        0
    y[1,2]     primal_lower -3.48
    y[1,3]     OBJ        0
    y[1,3]     primal_lower -7.01
    y[2,1]     OBJ        0
    y[2,1]     primal_lower -7.92
    y[2,3]     OBJ        0
    y[2,3]     primal_lower -6.39
    y[3,0]     OBJ        0
    y[3,0]     primal_lower -4.1
    y[3,1]     OBJ        0
    y[3,1]     primal_lower -6.99
    y[3,2]     OBJ        0
    y[3,2]     primal_lower -2.44
    u[0,1]     OBJ        0
    u[0,1]     primal_lower 32
    u[0,3]     OBJ        0
    u[0,3]     primal_lower 49
    u[1,0]     OBJ        0
    u[1,0]     primal_lower 89
    u[1,2]     OBJ        0
    u[1,2]     primal_lower 93
    u[1,3]     OBJ        0
    u[1,3]     primal_lower 55
    u[2,1]     OBJ        0
    u[2,1]     primal_lower 67
    u[2,3]     OBJ        0
    u[2,3]     primal_lower 24
    u[3,0]     OBJ        0
    u[3,0]     primal_lower 99
    u[3,1]     OBJ        0
    u[3,1]     primal_lower 33
    u[3,2]     OBJ        0
    u[3,2]     primal_lower 64
    MARKER    'MARKER'                 'INTEND'
RHS
    RHS       primal_lower 99
BOUNDS
 LI BND       y[0,1]     0
 UI BND       y[0,1]     1
 LI BND       y[0,3]     0
 UI BND       y[0,3]     1
 LI BND       y[1,0]     0
 UI BND       y[1,0]     1
 LI BND       y[1,2]     0
 UI BND       y[1,2]     1
 LI BND       y[1,3]     0
 UI BND       y[1,3]     1
 LI BND       y[2,1]     0
 UI BND       y[2,1]     1
 LI BND       y[2,3]     0
 UI BND       y[2,3]     1
 LI BND       y[3,0]     0
 UI BND       y[3,0]     1
 LI BND       y[3,1]     0
 UI BND       y[3,1]     1
 LI BND       y[3,2]     0
 UI BND       y[3,2]     1
 LI BND       u[0,1]     0
 UI BND       u[0,1]     1
 LI BND       u[0,3]     0
 UI BND       u[0,3]     1
 LI BND       u[1,0]     0
 UI BND       u[1,0]     1
 LI BND       u[1,2]     0
 UI BND       u[1,2]     1
 LI BND       u[1,3]     0
 UI BND       u[1,3]     1
 LI BND       u[2,1]     0
 UI BND       u[2,1]     1
 LI BND       u[2,3]     0
 UI BND       u[2,3]     1
 LI BND       u[3,0]     0
 UI BND       u[3,0]     1
 LI BND       u[3,1]     0
 UI BND       u[3,1]     1
 LI BND       u[3,2]     0
 UI BND       u[3,2]     1
ENDATA
